param n := 249;
param c := 1000;
param : V : p w :=
   0	  31	 444
   1	  16	 264
   2	  60	 292
   3	  46	 397
   4	  98	 294
   5	   4	 309
   6	   6	 363
   7	  18	 303
   8	   7	 334
   9	  52	 414
  10	  46	 278
  11	  88	 308
  12	  34	 387
  13	  14	 289
  14	  13	 324
  15	  82	 454
  16	  23	 270
  17	  66	 276
  18	  40	 491
  19	  36	 253
  20	  91	 256
  21	  69	 420
  22	  50	 276
  23	  41	 304
  24	  28	 495
  25	  25	 251
  26	  17	 254
  27	   4	 442
  28	  45	 276
  29	  76	 282
  30	  63	 374
  31	  23	 260
  32	  52	 366
  33	  16	 489
  34	  86	 250
  35	   3	 261
  36	  86	 494
  37	  79	 251
  38	  98	 255
  39	  45	 484
  40	  58	 251
  41	  79	 265
  42	  90	 466
  43	  75	 251
  44	  93	 283
  45	  54	 499
  46	  66	 250
  47	  82	 251
  48	  74	 418
  49	  12	 270
  50	  41	 312
  51	  19	 419
  52	  57	 270
  53	  91	 311
  54	  87	 380
  55	  93	 281
  56	  47	 339
  57	   7	 482
  58	  58	 251
  59	  55	 267
  60	   3	 489
  61	  51	 251
  62	  57	 260
  63	  40	 407
  64	  66	 272
  65	  21	 321
  66	   6	 367
  67	  26	 303
  68	  16	 330
  69	   4	 356
  70	  17	 289
  71	   2	 355
  72	  83	 368
  73	   4	 265
  74	  19	 367
  75	  83	 492
  76	  40	 252
  77	  99	 256
  78	  56	 448
  79	  76	 257
  80	  39	 295
  81	   8	 474
  82	  14	 254
  83	  57	 272
  84	  50	 412
  85	  86	 286
  86	  32	 302
  87	  22	 458
  88	  51	 270
  89	   9	 272
  90	  64	 476
  91	  91	 254
  92	  31	 270
  93	  44	 488
  94	  45	 255
  95	  12	 257
  96	  33	 489
  97	  82	 254
  98	  30	 257
  99	   9	 381
 100	  48	 272
 101	  37	 347
 102	  68	 430
 103	  92	 259
 104	  94	 311
 105	  70	 373
 106	  60	 298
 107	  21	 329
 108	  29	 472
 109	  89	 255
 110	  16	 273
 111	  62	 463
 112	  24	 259
 113	   7	 278
 114	  81	 425
 115	  86	 270
 116	  32	 305
 117	  40	 482
 118	  13	 253
 119	  88	 265
 120	  99	 420
 121	  82	 263
 122	  18	 317
 123	  52	 477
 124	  10	 253
 125	  96	 270
 126	  14	 431
 127	  14	 256
 128	  57	 313
 129	   8	 385
 130	  37	 253
 131	  19	 362
 132	  79	 442
 133	  81	 278
 134	 100	 280
 135	  51	 363
 136	  51	 313
 137	  58	 324
 138	  26	 391
 139	  35	 269
 140	  40	 340
 141	  24	 435
 142	  76	 260
 143	  96	 305
 144	  74	 395
 145	  57	 264
 146	  32	 341
 147	  14	 385
 148	  61	 288
 149	  46	 327
 150	  99	 443
 151	  31	 258
 152	  65	 299
 153	  92	 451
 154	  21	 270
 155	  38	 279
 156	  38	 486
 157	  76	 250
 158	  20	 264
 159	  71	 424
 160	  26	 281
 161	   4	 295
 162	  91	 371
 163	  63	 282
 164	  76	 347
 165	  19	 424
 166	  48	 273
 167	  50	 303
 168	  48	 364
 169	 100	 258
 170	  88	 378
 171	  26	 400
 172	  14	 252
 173	  39	 348
 174	  45	 427
 175	  29	 275
 176	  23	 298
 177	  33	 398
 178	  52	 263
 179	  65	 339
 180	  59	 458
 181	  98	 266
 182	  40	 276
 183	  18	 414
 184	  77	 282
 185	   9	 304
 186	  87	 392
 187	  27	 275
 188	   2	 333
 189	  75	 461
 190	  76	 257
 191	  24	 282
 192	  92	 393
 193	  46	 282
 194	  52	 325
 195	  37	 441
 196	  38	 269
 197	  72	 290
 198	  79	 405
 199	  10	 259
 200	  72	 336
 201	   2	 396
 202	  59	 295
 203	  97	 309
 204	  77	 487
 205	  99	 255
 206	  12	 258
 207	  69	 373
 208	   2	 265
 209	  82	 362
 210	  97	 459
 211	  34	 256
 212	   6	 285
 213	   6	 438
 214	  24	 277
 215	  80	 285
 216	  32	 405
 217	  20	 272
 218	  38	 323
 219	  97	 473
 220	  36	 250
 221	  33	 277
 222	  52	 451
 223	  90	 263
 224	  29	 286
 225	  73	 391
 226	  77	 272
 227	  20	 337
 228	  39	 444
 229	  47	 264
 230	  80	 292
 231	  50	 396
 232	  36	 283
 233	  70	 321
 234	  80	 354
 235	  35	 285
 236	  24	 361
 237	   3	 393
 238	  15	 289
 239	  63	 318
 240	  52	 493
 241	   8	 250
 242	   7	 257
 243	  62	 369
 244	  94	 296
 245	  78	 335
 246	  44	 359
 247	  10	 284
 248	  74	 357
;

set E :=
   0	  19
   0	  22
   0	  27
   0	  38
   0	  69
   0	  82
   0	  86
   0	 110
   0	 128
   0	 134
   0	 135
   0	 136
   0	 142
   0	 149
   0	 157
   0	 159
   0	 160
   0	 161
   0	 164
   0	 177
   0	 198
   0	 199
   0	 224
   0	 231
   1	   2
   1	  19
   1	  24
   1	  30
   1	  32
   1	  37
   1	  41
   1	  72
   1	  79
   1	  86
   1	  88
   1	  90
   1	  91
   1	  97
   1	 123
   1	 140
   1	 156
   1	 162
   1	 168
   1	 188
   1	 190
   1	 191
   1	 198
   1	 221
   1	 242
   2	  18
   2	  19
   2	  42
   2	  48
   2	  65
   2	  85
   2	 101
   2	 104
   2	 150
   2	 152
   2	 170
   2	 178
   2	 184
   2	 193
   2	 219
   2	 227
   2	 234
   2	 236
   2	 237
   3	   6
   3	  15
   3	  21
   3	  29
   3	  38
   3	  44
   3	  63
   3	  66
   3	  71
   3	  73
   3	  75
   3	  86
   3	  91
   3	  94
   3	 105
   3	 107
   3	 120
   3	 144
   3	 148
   3	 151
   3	 169
   3	 173
   3	 204
   3	 216
   3	 223
   3	 238
   3	 247
   4	  31
   4	  38
   4	  45
   4	  64
   4	  65
   4	  90
   4	  96
   4	  98
   4	 111
   4	 118
   4	 122
   4	 132
   4	 158
   4	 160
   4	 165
   4	 168
   4	 171
   4	 183
   4	 202
   4	 204
   4	 205
   4	 209
   4	 224
   4	 243
   5	  18
   5	  28
   5	  31
   5	  41
   5	  47
   5	  54
   5	  55
   5	  60
   5	  65
   5	  70
   5	  80
   5	  93
   5	 113
   5	 117
   5	 119
   5	 120
   5	 129
   5	 130
   5	 133
   5	 154
   5	 157
   5	 158
   5	 172
   5	 174
   5	 180
   5	 192
   5	 221
   5	 227
   6	  23
   6	  33
   6	  43
   6	  56
   6	  57
   6	  64
   6	 122
   6	 129
   6	 132
   6	 138
   6	 144
   6	 145
   6	 174
   6	 185
   6	 200
   6	 204
   6	 218
   7	  31
   7	  56
   7	  75
   7	 111
   7	 116
   7	 131
   7	 137
   7	 152
   7	 156
   7	 160
   7	 164
   7	 165
   7	 166
   7	 174
   7	 214
   7	 216
   7	 218
   7	 238
   7	 242
   8	  13
   8	  33
   8	  43
   8	  49
   8	  60
   8	  76
   8	  84
   8	  93
   8	  98
   8	  99
   8	 102
   8	 116
   8	 121
   8	 138
   8	 167
   8	 173
   8	 175
   8	 203
   8	 247
   9	  15
   9	  23
   9	  31
   9	  37
   9	  43
   9	  93
   9	  96
   9	 112
   9	 121
   9	 145
   9	 150
   9	 152
   9	 171
   9	 174
   9	 178
   9	 193
   9	 196
   9	 197
   9	 200
   9	 212
   9	 235
  10	  12
  10	  14
  10	  26
  10	  67
  10	  70
  10	  81
  10	  83
  10	  89
  10	  93
  10	  98
  10	 104
  10	 125
  10	 156
  10	 161
  10	 170
  10	 176
  10	 178
  10	 195
  10	 204
  10	 213
  10	 226
  10	 245
  11	  17
  11	  19
  11	  41
  11	  46
  11	  52
  11	  53
  11	  65
  11	  85
  11	  86
  11	  88
  11	  99
  11	 102
  11	 104
  11	 117
  11	 122
  11	 130
  11	 143
  11	 153
  11	 156
  11	 158
  11	 174
  11	 177
  11	 192
  11	 193
  11	 200
  11	 207
  11	 219
  11	 220
  11	 223
  11	 231
  11	 232
  11	 235
  11	 245
  12	  22
  12	  25
  12	  34
  12	  35
  12	  40
  12	  41
  12	  51
  12	  70
  12	  89
  12	 123
  12	 133
  12	 136
  12	 153
  12	 166
  12	 172
  12	 191
  12	 193
  12	 222
  12	 228
  12	 246
  13	  28
  13	  38
  13	  67
  13	  76
  13	  86
  13	  93
  13	 119
  13	 120
  13	 133
  13	 164
  13	 169
  13	 172
  13	 173
  13	 176
  13	 182
  13	 193
  13	 210
  13	 218
  13	 219
  13	 230
  13	 234
  13	 245
  14	  16
  14	  27
  14	  41
  14	  52
  14	  59
  14	  60
  14	  72
  14	  85
  14	  94
  14	  97
  14	 104
  14	 110
  14	 111
  14	 130
  14	 132
  14	 136
  14	 153
  14	 168
  14	 173
  14	 181
  14	 188
  14	 223
  14	 240
  14	 241
  14	 248
  15	  19
  15	  26
  15	  32
  15	  33
  15	  53
  15	  82
  15	  85
  15	  88
  15	 117
  15	 120
  15	 121
  15	 123
  15	 135
  15	 149
  15	 166
  15	 174
  15	 181
  15	 196
  15	 201
  15	 209
  15	 224
  15	 238
  15	 242
  15	 243
  16	  47
  16	  56
  16	  57
  16	  60
  16	  62
  16	  64
  16	  69
  16	  78
  16	  84
  16	  87
  16	 105
  16	 106
  16	 116
  16	 131
  16	 132
  16	 152
  16	 155
  16	 173
  16	 183
  16	 189
  16	 194
  16	 214
  16	 215
  16	 219
  16	 240
  16	 243
  16	 244
  17	  19
  17	  39
  17	  46
  17	  52
  17	  53
  17	  58
  17	  61
  17	  67
  17	  78
  17	  80
  17	  81
  17	 101
  17	 108
  17	 118
  17	 126
  17	 129
  17	 134
  17	 146
  17	 150
  17	 184
  17	 193
  17	 219
  17	 222
  17	 223
  17	 226
  17	 227
  17	 243
  18	  24
  18	  27
  18	  32
  18	  35
  18	  52
  18	  55
  18	  63
  18	  72
  18	  76
  18	  83
  18	  88
  18	  95
  18	 102
  18	 128
  18	 134
  18	 151
  18	 164
  18	 176
  18	 178
  18	 189
  18	 218
  18	 226
  18	 241
  19	  32
  19	  38
  19	  41
  19	  42
  19	  61
  19	  64
  19	  74
  19	  89
  19	  95
  19	  98
  19	 103
  19	 115
  19	 119
  19	 129
  19	 138
  19	 149
  19	 151
  19	 169
  19	 189
  19	 191
  19	 193
  19	 197
  19	 202
  19	 222
  19	 232
  19	 239
  20	  28
  20	  40
  20	  49
  20	  64
  20	 100
  20	 101
  20	 109
  20	 130
  20	 135
  20	 141
  20	 149
  20	 164
  20	 166
  20	 213
  20	 214
  20	 215
  20	 219
  20	 220
  20	 221
  20	 227
  20	 241
  21	  31
  21	  40
  21	  56
  21	  59
  21	  64
  21	  65
  21	  71
  21	  74
  21	  77
  21	  83
  21	  93
  21	 122
  21	 139
  21	 160
  21	 168
  21	 170
  21	 176
  21	 182
  21	 196
  21	 216
  22	  33
  22	  58
  22	  78
  22	  86
  22	  91
  22	  93
  22	  97
  22	 120
  22	 122
  22	 162
  22	 169
  22	 189
  22	 218
  22	 248
  23	  25
  23	  29
  23	  46
  23	  51
  23	  89
  23	  93
  23	 102
  23	 111
  23	 116
  23	 130
  23	 135
  23	 159
  23	 160
  23	 162
  23	 168
  23	 187
  23	 197
  23	 204
  23	 224
  23	 241
  24	  26
  24	  37
  24	  61
  24	  79
  24	  82
  24	  86
  24	  97
  24	 144
  24	 170
  24	 186
  24	 192
  24	 197
  24	 200
  24	 203
  24	 214
  24	 217
  24	 234
  24	 241
  25	  27
  25	  43
  25	  77
  25	  86
  25	 105
  25	 108
  25	 117
  25	 124
  25	 125
  25	 128
  25	 129
  25	 155
  25	 156
  25	 167
  25	 184
  25	 197
  25	 231
  25	 234
  25	 246
  26	  34
  26	  40
  26	  64
  26	  66
  26	  69
  26	  79
  26	  88
  26	  90
  26	  96
  26	 120
  26	 122
  26	 125
  26	 129
  26	 133
  26	 148
  26	 171
  26	 174
  26	 175
  26	 185
  26	 187
  26	 206
  26	 210
  26	 216
  26	 235
  26	 244
  27	  29
  27	  30
  27	  68
  27	  71
  27	  74
  27	  95
  27	 100
  27	 101
  27	 108
  27	 115
  27	 174
  27	 179
  27	 209
  27	 211
  27	 212
  27	 226
  27	 227
  27	 229
  27	 247
  28	  31
  28	  47
  28	  49
  28	  63
  28	  70
  28	  73
  28	  82
  28	  89
  28	 119
  28	 124
  28	 134
  28	 159
  28	 163
  28	 165
  28	 170
  28	 193
  28	 198
  28	 202
  28	 208
  28	 226
  28	 248
  29	  46
  29	  60
  29	  67
  29	  73
  29	  75
  29	  87
  29	  89
  29	  91
  29	  93
  29	  97
  29	 102
  29	 104
  29	 106
  29	 112
  29	 113
  29	 121
  29	 123
  29	 133
  29	 134
  29	 138
  29	 142
  29	 164
  29	 176
  29	 185
  29	 199
  29	 225
  29	 227
  29	 245
  29	 248
  30	  31
  30	  32
  30	  34
  30	  38
  30	  49
  30	  55
  30	  56
  30	  62
  30	  66
  30	  92
  30	  98
  30	 126
  30	 133
  30	 136
  30	 146
  30	 149
  30	 161
  30	 209
  30	 210
  30	 213
  30	 220
  30	 230
  31	  53
  31	  63
  31	  67
  31	  72
  31	  76
  31	  98
  31	 100
  31	 106
  31	 139
  31	 145
  31	 155
  31	 180
  31	 188
  31	 198
  31	 207
  31	 214
  31	 221
  31	 230
  32	  41
  32	  60
  32	  73
  32	  84
  32	 120
  32	 127
  32	 142
  32	 147
  32	 153
  32	 160
  32	 188
  32	 189
  32	 196
  32	 198
  32	 211
  32	 218
  32	 228
  32	 240
  32	 242
  32	 248
  33	  34
  33	  45
  33	  52
  33	  57
  33	  65
  33	  67
  33	  69
  33	  77
  33	  84
  33	 100
  33	 104
  33	 112
  33	 117
  33	 118
  33	 134
  33	 181
  33	 195
  33	 197
  33	 217
  33	 225
  33	 244
  34	  38
  34	  46
  34	  51
  34	  52
  34	  55
  34	  58
  34	 112
  34	 120
  34	 134
  34	 137
  34	 157
  34	 175
  34	 186
  34	 207
  34	 210
  34	 212
  34	 217
  34	 219
  34	 227
  34	 231
  34	 240
  35	  52
  35	  55
  35	  72
  35	  86
  35	  89
  35	  95
  35	 106
  35	 117
  35	 142
  35	 147
  35	 162
  35	 163
  35	 169
  35	 196
  35	 231
  35	 244
  36	  43
  36	  45
  36	  49
  36	  65
  36	  74
  36	  77
  36	  83
  36	  91
  36	  97
  36	  98
  36	 100
  36	 107
  36	 115
  36	 127
  36	 136
  36	 140
  36	 142
  36	 174
  36	 186
  36	 198
  36	 206
  36	 207
  36	 222
  36	 229
  36	 241
  37	  45
  37	  49
  37	  54
  37	  66
  37	  73
  37	  74
  37	  77
  37	  78
  37	  93
  37	 111
  37	 129
  37	 134
  37	 137
  37	 138
  37	 161
  37	 162
  37	 163
  37	 175
  37	 180
  37	 195
  37	 201
  37	 206
  37	 207
  37	 210
  37	 228
  38	  46
  38	  74
  38	  98
  38	 117
  38	 145
  38	 168
  38	 172
  38	 173
  38	 215
  38	 228
  38	 234
  38	 246
  39	  48
  39	  61
  39	  73
  39	  99
  39	 105
  39	 110
  39	 114
  39	 129
  39	 139
  39	 147
  39	 152
  39	 167
  39	 186
  39	 194
  39	 201
  39	 218
  39	 220
  39	 224
  39	 233
  40	  43
  40	  61
  40	  70
  40	 102
  40	 108
  40	 111
  40	 118
  40	 120
  40	 122
  40	 125
  40	 126
  40	 136
  40	 139
  40	 149
  40	 186
  40	 229
  40	 240
  40	 241
  40	 244
  40	 248
  41	  48
  41	  52
  41	  61
  41	  70
  41	  72
  41	  85
  41	  87
  41	  89
  41	  95
  41	 128
  41	 132
  41	 134
  41	 136
  41	 140
  41	 151
  41	 159
  41	 163
  41	 167
  41	 168
  41	 177
  41	 179
  41	 197
  41	 219
  41	 223
  41	 239
  41	 246
  41	 248
  42	  50
  42	  58
  42	  64
  42	  71
  42	  76
  42	  89
  42	  92
  42	 113
  42	 122
  42	 125
  42	 138
  42	 144
  42	 145
  42	 162
  42	 172
  42	 189
  42	 201
  42	 217
  42	 222
  42	 239
  42	 245
  43	  44
  43	  52
  43	  55
  43	  56
  43	  61
  43	  68
  43	  72
  43	  73
  43	  79
  43	  89
  43	 113
  43	 125
  43	 126
  43	 130
  43	 153
  43	 158
  43	 160
  43	 166
  43	 169
  43	 196
  43	 202
  43	 207
  43	 215
  43	 217
  43	 222
  43	 236
  44	  48
  44	  49
  44	  57
  44	  63
  44	  64
  44	  98
  44	 107
  44	 119
  44	 125
  44	 127
  44	 158
  44	 170
  44	 173
  44	 189
  44	 194
  44	 197
  44	 200
  44	 213
  44	 225
  44	 228
  44	 231
  44	 233
  44	 239
  44	 241
  44	 242
  45	  53
  45	  57
  45	  68
  45	 111
  45	 128
  45	 138
  45	 152
  45	 170
  45	 181
  45	 184
  45	 228
  45	 233
  45	 234
  46	  60
  46	  76
  46	  86
  46	 103
  46	 150
  46	 153
  46	 187
  46	 207
  46	 232
  46	 233
  47	  89
  47	 101
  47	 104
  47	 111
  47	 112
  47	 121
  47	 131
  47	 134
  47	 135
  47	 136
  47	 137
  47	 141
  47	 146
  47	 166
  47	 174
  47	 189
  47	 216
  47	 221
  47	 237
  47	 248
  48	  52
  48	  70
  48	  80
  48	  88
  48	  91
  48	  99
  48	 100
  48	 106
  48	 156
  48	 178
  48	 188
  48	 189
  48	 191
  48	 200
  48	 205
  48	 209
  48	 210
  48	 233
  48	 237
  48	 242
  48	 247
  49	  61
  49	  66
  49	  70
  49	  75
  49	 111
  49	 115
  49	 121
  49	 124
  49	 127
  49	 141
  49	 148
  49	 149
  49	 164
  49	 177
  49	 187
  49	 220
  49	 221
  49	 223
  49	 248
  50	  53
  50	  63
  50	  89
  50	  92
  50	  97
  50	 103
  50	 120
  50	 123
  50	 125
  50	 127
  50	 136
  50	 137
  50	 138
  50	 147
  50	 151
  50	 152
  50	 155
  50	 162
  50	 207
  50	 234
  50	 242
  51	  59
  51	  60
  51	  67
  51	  70
  51	  81
  51	  84
  51	 136
  51	 137
  51	 144
  51	 155
  51	 156
  51	 165
  51	 173
  51	 177
  51	 181
  51	 189
  51	 195
  51	 198
  51	 201
  51	 203
  51	 209
  51	 210
  51	 216
  51	 247
  52	  55
  52	  57
  52	  60
  52	  72
  52	  83
  52	  89
  52	 100
  52	 110
  52	 113
  52	 117
  52	 129
  52	 139
  52	 158
  52	 159
  52	 162
  52	 177
  52	 185
  52	 186
  52	 196
  52	 197
  52	 200
  52	 201
  52	 204
  52	 206
  52	 224
  52	 229
  52	 237
  53	  63
  53	  65
  53	  83
  53	  88
  53	  93
  53	  94
  53	 104
  53	 112
  53	 113
  53	 127
  53	 136
  53	 157
  53	 159
  53	 191
  53	 208
  53	 213
  53	 219
  53	 226
  54	  55
  54	  60
  54	  62
  54	  89
  54	  91
  54	  94
  54	  98
  54	 100
  54	 104
  54	 122
  54	 145
  54	 162
  54	 165
  54	 173
  54	 179
  54	 183
  54	 184
  54	 199
  54	 202
  54	 224
  54	 230
  54	 244
  54	 245
  54	 248
  55	  59
  55	  64
  55	  80
  55	  84
  55	  85
  55	  91
  55	  93
  55	 106
  55	 121
  55	 140
  55	 147
  55	 149
  55	 155
  55	 175
  55	 195
  55	 196
  55	 201
  55	 204
  55	 208
  55	 214
  55	 218
  56	  82
  56	  87
  56	 104
  56	 145
  56	 158
  56	 186
  56	 195
  56	 209
  56	 211
  56	 224
  56	 230
  56	 231
  56	 238
  56	 243
  57	  85
  57	 107
  57	 123
  57	 128
  57	 129
  57	 136
  57	 137
  57	 139
  57	 141
  57	 156
  57	 177
  57	 186
  57	 187
  57	 192
  57	 198
  57	 215
  57	 216
  57	 226
  57	 235
  57	 238
  57	 245
  58	  60
  58	  64
  58	  79
  58	  81
  58	  89
  58	  92
  58	  96
  58	  98
  58	 105
  58	 122
  58	 136
  58	 139
  58	 141
  58	 153
  58	 164
  58	 212
  58	 219
  58	 222
  58	 229
  59	  81
  59	  88
  59	  92
  59	 114
  59	 121
  59	 132
  59	 141
  59	 143
  59	 149
  59	 152
  59	 158
  59	 165
  59	 168
  59	 185
  59	 188
  59	 190
  59	 193
  59	 202
  59	 203
  59	 210
  59	 213
  59	 215
  59	 233
  59	 240
  60	  78
  60	 105
  60	 112
  60	 122
  60	 123
  60	 128
  60	 132
  60	 142
  60	 145
  60	 150
  60	 155
  60	 182
  60	 186
  60	 191
  60	 193
  60	 198
  60	 210
  60	 211
  60	 214
  60	 218
  60	 229
  60	 235
  61	  72
  61	 125
  61	 126
  61	 130
  61	 136
  61	 173
  61	 178
  61	 179
  61	 181
  61	 190
  61	 201
  61	 209
  61	 229
  61	 232
  61	 233
  61	 247
  62	  77
  62	  79
  62	  95
  62	 106
  62	 114
  62	 115
  62	 117
  62	 125
  62	 133
  62	 137
  62	 139
  62	 143
  62	 147
  62	 148
  62	 149
  62	 154
  62	 192
  62	 193
  62	 199
  62	 204
  62	 218
  62	 227
  62	 241
  62	 243
  63	  69
  63	  72
  63	  75
  63	  97
  63	 104
  63	 107
  63	 112
  63	 124
  63	 126
  63	 131
  63	 134
  63	 166
  63	 182
  63	 191
  63	 216
  63	 220
  63	 235
  63	 245
  64	  66
  64	  76
  64	  93
  64	  95
  64	 115
  64	 118
  64	 120
  64	 124
  64	 145
  64	 147
  64	 181
  64	 199
  64	 228
  64	 240
  65	  71
  65	  77
  65	  91
  65	  97
  65	 100
  65	 117
  65	 118
  65	 131
  65	 156
  65	 165
  65	 181
  65	 202
  65	 210
  65	 215
  65	 233
  65	 239
  66	  83
  66	  91
  66	  92
  66	 100
  66	 101
  66	 109
  66	 113
  66	 172
  66	 173
  66	 176
  66	 181
  66	 186
  66	 189
  66	 195
  66	 197
  66	 198
  66	 217
  66	 230
  67	  72
  67	  74
  67	  80
  67	  83
  67	  88
  67	  98
  67	 100
  67	 107
  67	 128
  67	 133
  67	 148
  67	 155
  67	 165
  67	 173
  67	 175
  67	 189
  67	 202
  67	 225
  67	 232
  67	 234
  68	  88
  68	  94
  68	 104
  68	 106
  68	 108
  68	 126
  68	 141
  68	 149
  68	 154
  68	 170
  68	 173
  68	 184
  68	 200
  68	 201
  68	 210
  68	 230
  69	  72
  69	  80
  69	  85
  69	  86
  69	 104
  69	 106
  69	 110
  69	 115
  69	 121
  69	 124
  69	 129
  69	 136
  69	 138
  69	 139
  69	 147
  69	 160
  69	 161
  69	 166
  69	 168
  69	 201
  69	 204
  69	 210
  69	 241
  69	 247
  70	  73
  70	  89
  70	  92
  70	  97
  70	 100
  70	 118
  70	 136
  70	 146
  70	 149
  70	 163
  70	 177
  70	 199
  70	 203
  70	 213
  70	 225
  70	 240
  70	 245
  71	  76
  71	  77
  71	  93
  71	  96
  71	 102
  71	 106
  71	 128
  71	 132
  71	 168
  71	 181
  71	 199
  71	 211
  71	 214
  71	 223
  71	 225
  71	 230
  71	 231
  72	  94
  72	  95
  72	 101
  72	 113
  72	 114
  72	 126
  72	 129
  72	 130
  72	 137
  72	 162
  72	 166
  72	 180
  72	 185
  72	 204
  72	 209
  72	 210
  73	  78
  73	  82
  73	  83
  73	 101
  73	 119
  73	 128
  73	 134
  73	 136
  73	 145
  73	 155
  73	 156
  73	 159
  73	 175
  73	 183
  73	 188
  73	 222
  73	 232
  73	 234
  73	 238
  74	  76
  74	  92
  74	 108
  74	 111
  74	 115
  74	 120
  74	 124
  74	 129
  74	 144
  74	 154
  74	 165
  74	 172
  74	 175
  74	 176
  74	 191
  74	 192
  74	 195
  74	 196
  74	 208
  74	 214
  74	 225
  74	 226
  75	  76
  75	  78
  75	 101
  75	 104
  75	 108
  75	 111
  75	 117
  75	 126
  75	 132
  75	 152
  75	 164
  75	 174
  75	 213
  75	 224
  75	 225
  75	 227
  75	 232
  76	  77
  76	  99
  76	 101
  76	 105
  76	 116
  76	 133
  76	 141
  76	 144
  76	 147
  76	 165
  76	 181
  76	 186
  76	 199
  76	 209
  76	 219
  76	 221
  76	 239
  76	 240
  77	  79
  77	  80
  77	  84
  77	 104
  77	 106
  77	 123
  77	 125
  77	 126
  77	 135
  77	 141
  77	 142
  77	 149
  77	 156
  77	 158
  77	 173
  77	 187
  77	 206
  77	 225
  77	 236
  78	  81
  78	  88
  78	  97
  78	 108
  78	 114
  78	 115
  78	 142
  78	 155
  78	 167
  78	 184
  78	 185
  78	 198
  78	 204
  78	 209
  78	 220
  78	 223
  78	 224
  78	 228
  78	 246
  79	  80
  79	  83
  79	  85
  79	  87
  79	  94
  79	  97
  79	 101
  79	 103
  79	 154
  79	 158
  79	 185
  79	 193
  79	 214
  79	 216
  79	 225
  79	 227
  80	  88
  80	 100
  80	 101
  80	 103
  80	 109
  80	 111
  80	 118
  80	 121
  80	 158
  80	 161
  80	 163
  80	 167
  80	 169
  80	 177
  80	 194
  80	 200
  80	 204
  80	 217
  80	 220
  80	 224
  80	 243
  80	 248
  81	  91
  81	 109
  81	 131
  81	 136
  81	 141
  81	 144
  81	 160
  81	 182
  81	 215
  81	 226
  81	 237
  81	 241
  82	 101
  82	 116
  82	 117
  82	 138
  82	 155
  82	 167
  82	 187
  82	 199
  82	 213
  82	 214
  82	 226
  82	 234
  83	  96
  83	  97
  83	 103
  83	 117
  83	 118
  83	 123
  83	 125
  83	 133
  83	 136
  83	 145
  83	 170
  83	 172
  83	 173
  83	 188
  83	 193
  83	 210
  83	 220
  83	 225
  83	 247
  84	  85
  84	  87
  84	 101
  84	 116
  84	 130
  84	 147
  84	 164
  84	 167
  84	 176
  84	 178
  84	 187
  84	 189
  84	 235
  85	  99
  85	 108
  85	 122
  85	 136
  85	 148
  85	 150
  85	 162
  85	 164
  85	 175
  85	 176
  85	 181
  85	 190
  85	 194
  85	 196
  85	 199
  85	 207
  85	 209
  85	 216
  85	 218
  85	 223
  85	 231
  85	 235
  86	  94
  86	 110
  86	 113
  86	 125
  86	 131
  86	 133
  86	 147
  86	 154
  86	 164
  86	 170
  86	 174
  86	 196
  86	 222
  86	 240
  87	  98
  87	 102
  87	 106
  87	 114
  87	 128
  87	 129
  87	 135
  87	 148
  87	 149
  87	 153
  87	 166
  87	 182
  87	 184
  87	 190
  87	 202
  87	 206
  87	 207
  87	 209
  87	 211
  87	 228
  87	 229
  87	 240
  87	 241
  88	  90
  88	 103
  88	 115
  88	 138
  88	 155
  88	 156
  88	 157
  88	 162
  88	 167
  88	 172
  88	 174
  88	 181
  88	 205
  88	 207
  88	 218
  88	 226
  88	 233
  88	 238
  88	 243
  89	  91
  89	  97
  89	  98
  89	 105
  89	 121
  89	 122
  89	 123
  89	 135
  89	 150
  89	 153
  89	 163
  89	 179
  89	 210
  89	 235
  89	 247
  90	  91
  90	 115
  90	 119
  90	 120
  90	 132
  90	 138
  90	 159
  90	 168
  90	 170
  90	 173
  90	 194
  90	 211
  90	 213
  90	 221
  90	 232
  90	 242
  91	 100
  91	 110
  91	 114
  91	 131
  91	 144
  91	 149
  91	 169
  91	 176
  91	 180
  91	 197
  91	 199
  91	 201
  91	 208
  91	 227
  91	 228
  91	 229
  91	 234
  91	 240
  91	 246
  92	 111
  92	 124
  92	 135
  92	 140
  92	 160
  92	 164
  92	 171
  92	 178
  92	 181
  92	 189
  92	 234
  92	 244
  93	  94
  93	 114
  93	 117
  93	 135
  93	 158
  93	 183
  93	 201
  93	 231
  93	 234
  93	 235
  93	 240
  93	 244
  94	 122
  94	 139
  94	 144
  94	 156
  94	 160
  94	 170
  94	 172
  94	 173
  94	 174
  94	 178
  94	 187
  94	 191
  94	 200
  94	 209
  94	 234
  94	 240
  95	  98
  95	 127
  95	 137
  95	 139
  95	 140
  95	 157
  95	 163
  95	 170
  95	 189
  95	 217
  95	 221
  95	 234
  95	 240
  95	 243
  96	  98
  96	 105
  96	 109
  96	 110
  96	 122
  96	 131
  96	 135
  96	 155
  96	 156
  96	 158
  96	 195
  96	 196
  96	 197
  96	 218
  96	 223
  96	 227
  96	 230
  97	  99
  97	 101
  97	 103
  97	 138
  97	 152
  97	 163
  97	 168
  97	 170
  97	 177
  97	 178
  97	 187
  97	 229
  97	 234
  97	 237
  98	 103
  98	 129
  98	 134
  98	 147
  98	 153
  98	 154
  98	 157
  98	 171
  98	 174
  98	 181
  98	 196
  98	 215
  98	 231
  98	 232
  98	 236
  98	 241
  98	 242
  99	 155
  99	 185
  99	 195
  99	 196
  99	 207
  99	 215
  99	 216
  99	 220
  99	 229
  99	 246
 100	 106
 100	 118
 100	 124
 100	 133
 100	 142
 100	 147
 100	 150
 100	 162
 100	 175
 100	 180
 100	 194
 100	 196
 100	 210
 100	 222
 100	 225
 100	 229
 100	 237
 100	 248
 101	 102
 101	 103
 101	 111
 101	 115
 101	 125
 101	 126
 101	 153
 101	 154
 101	 158
 101	 168
 101	 174
 101	 175
 101	 183
 101	 200
 101	 201
 101	 204
 101	 210
 101	 220
 101	 228
 101	 231
 101	 240
 101	 244
 102	 103
 102	 109
 102	 121
 102	 140
 102	 150
 102	 153
 102	 186
 102	 189
 102	 190
 102	 195
 102	 212
 102	 218
 103	 111
 103	 141
 103	 151
 103	 156
 103	 158
 103	 168
 103	 185
 103	 190
 103	 199
 103	 219
 103	 221
 103	 222
 103	 235
 103	 240
 104	 120
 104	 147
 104	 151
 104	 155
 104	 166
 104	 167
 104	 174
 104	 175
 104	 230
 104	 234
 104	 240
 105	 112
 105	 120
 105	 136
 105	 146
 105	 172
 105	 174
 105	 192
 105	 222
 105	 228
 105	 240
 106	 127
 106	 132
 106	 157
 106	 169
 106	 176
 106	 187
 106	 200
 106	 201
 106	 211
 106	 227
 106	 237
 106	 243
 107	 111
 107	 133
 107	 135
 107	 148
 107	 158
 107	 160
 107	 161
 107	 171
 107	 176
 107	 185
 107	 192
 107	 197
 107	 201
 107	 205
 107	 210
 107	 227
 107	 230
 107	 243
 108	 117
 108	 127
 108	 132
 108	 167
 108	 190
 108	 196
 108	 200
 108	 202
 108	 216
 108	 233
 108	 237
 108	 239
 108	 240
 108	 242
 109	 113
 109	 114
 109	 128
 109	 135
 109	 137
 109	 142
 109	 167
 109	 182
 109	 188
 109	 211
 109	 242
 109	 244
 110	 111
 110	 129
 110	 154
 110	 158
 110	 166
 110	 180
 110	 190
 110	 204
 110	 227
 110	 229
 110	 231
 110	 248
 111	 122
 111	 128
 111	 140
 111	 155
 111	 165
 111	 176
 111	 183
 111	 185
 111	 186
 111	 196
 111	 239
 112	 149
 112	 153
 112	 156
 112	 163
 112	 176
 112	 178
 112	 181
 112	 182
 112	 184
 112	 191
 112	 194
 112	 210
 112	 234
 112	 240
 112	 245
 112	 247
 113	 114
 113	 115
 113	 122
 113	 130
 113	 136
 113	 142
 113	 163
 113	 170
 113	 191
 113	 210
 113	 215
 113	 219
 113	 237
 113	 240
 113	 243
 113	 244
 113	 245
 114	 116
 114	 137
 114	 165
 114	 169
 114	 178
 114	 185
 114	 189
 114	 207
 115	 121
 115	 126
 115	 130
 115	 144
 115	 146
 115	 147
 115	 175
 115	 183
 115	 193
 115	 200
 115	 209
 115	 215
 115	 223
 115	 236
 115	 237
 115	 245
 116	 133
 116	 150
 116	 192
 116	 193
 116	 198
 116	 202
 116	 209
 116	 216
 116	 222
 116	 226
 116	 232
 116	 235
 116	 238
 116	 243
 116	 246
 117	 126
 117	 131
 117	 159
 117	 166
 117	 177
 117	 192
 117	 204
 117	 205
 117	 220
 117	 223
 118	 145
 118	 159
 118	 173
 118	 176
 118	 179
 118	 182
 118	 192
 118	 202
 118	 203
 118	 224
 118	 228
 118	 240
 119	 121
 119	 136
 119	 157
 119	 162
 119	 168
 119	 169
 119	 180
 119	 181
 119	 190
 119	 191
 119	 196
 119	 230
 119	 234
 119	 235
 120	 122
 120	 144
 120	 151
 120	 155
 120	 162
 120	 163
 120	 178
 120	 186
 120	 187
 120	 192
 120	 209
 120	 221
 120	 248
 121	 135
 121	 141
 121	 145
 121	 154
 121	 178
 121	 185
 121	 196
 121	 216
 121	 222
 121	 230
 121	 236
 121	 240
 122	 128
 122	 140
 122	 141
 122	 163
 122	 171
 122	 176
 122	 195
 122	 197
 122	 220
 122	 222
 123	 124
 123	 137
 123	 177
 123	 178
 123	 185
 123	 191
 123	 192
 123	 194
 123	 226
 123	 227
 124	 128
 124	 133
 124	 147
 124	 148
 124	 154
 124	 166
 124	 170
 124	 181
 124	 185
 124	 193
 124	 217
 124	 221
 124	 230
 124	 231
 124	 236
 124	 239
 125	 157
 125	 162
 125	 184
 125	 200
 125	 202
 125	 203
 125	 214
 125	 216
 125	 221
 125	 225
 125	 230
 125	 244
 126	 127
 126	 141
 126	 155
 126	 156
 126	 164
 126	 187
 126	 191
 126	 199
 126	 209
 126	 217
 126	 219
 126	 238
 126	 244
 127	 129
 127	 147
 127	 163
 127	 180
 127	 191
 127	 197
 127	 207
 127	 209
 127	 217
 127	 231
 127	 239
 127	 244
 128	 130
 128	 142
 128	 150
 128	 162
 128	 174
 128	 182
 128	 186
 128	 197
 128	 200
 128	 206
 128	 225
 128	 228
 128	 237
 129	 137
 129	 140
 129	 153
 129	 175
 129	 180
 129	 198
 129	 217
 129	 218
 129	 234
 129	 246
 130	 148
 130	 167
 130	 168
 130	 174
 130	 180
 130	 186
 130	 192
 130	 203
 130	 211
 130	 231
 130	 238
 131	 149
 131	 151
 131	 156
 131	 183
 131	 196
 131	 203
 131	 224
 131	 227
 131	 236
 131	 244
 131	 246
 132	 147
 132	 152
 132	 156
 132	 172
 132	 179
 132	 180
 132	 195
 132	 196
 132	 201
 132	 203
 132	 204
 132	 205
 132	 212
 132	 218
 132	 225
 132	 235
 133	 134
 133	 139
 133	 147
 133	 159
 133	 166
 133	 170
 133	 187
 133	 195
 133	 208
 133	 220
 133	 230
 133	 235
 133	 238
 133	 240
 133	 243
 133	 247
 134	 137
 134	 143
 134	 150
 134	 154
 134	 158
 134	 164
 134	 176
 134	 186
 134	 187
 134	 188
 134	 204
 134	 221
 134	 235
 134	 241
 135	 137
 135	 154
 135	 169
 135	 177
 135	 178
 135	 180
 135	 188
 135	 194
 135	 202
 135	 208
 135	 234
 135	 237
 135	 244
 135	 245
 136	 143
 136	 147
 136	 155
 136	 177
 136	 183
 136	 198
 136	 201
 136	 215
 136	 219
 136	 229
 136	 230
 136	 231
 136	 236
 137	 143
 137	 162
 137	 163
 137	 174
 137	 177
 137	 184
 137	 193
 137	 198
 137	 226
 138	 148
 138	 165
 138	 180
 138	 207
 138	 211
 138	 212
 138	 220
 138	 223
 138	 225
 138	 229
 138	 233
 138	 240
 139	 158
 139	 165
 139	 180
 139	 191
 139	 195
 139	 199
 139	 203
 139	 205
 139	 214
 139	 218
 139	 247
 140	 145
 140	 172
 140	 176
 140	 185
 140	 192
 140	 197
 140	 207
 140	 210
 140	 212
 140	 231
 140	 233
 140	 245
 140	 247
 141	 157
 141	 170
 141	 176
 141	 178
 141	 186
 141	 190
 141	 235
 142	 144
 142	 146
 142	 150
 142	 157
 142	 173
 142	 186
 142	 188
 142	 192
 142	 221
 142	 228
 143	 144
 143	 152
 143	 164
 143	 177
 143	 180
 143	 186
 143	 201
 143	 224
 143	 232
 143	 233
 143	 237
 144	 148
 144	 153
 144	 156
 144	 159
 144	 164
 144	 167
 144	 169
 144	 184
 144	 185
 144	 187
 144	 193
 144	 202
 144	 205
 144	 219
 144	 221
 144	 226
 144	 227
 144	 238
 144	 241
 144	 246
 144	 248
 145	 155
 145	 171
 145	 175
 145	 198
 145	 199
 145	 202
 145	 219
 145	 231
 145	 234
 146	 159
 146	 164
 146	 168
 146	 179
 146	 180
 146	 188
 146	 193
 146	 198
 146	 200
 146	 202
 146	 228
 146	 230
 146	 247
 146	 248
 147	 164
 147	 176
 147	 203
 147	 209
 147	 213
 147	 215
 147	 219
 147	 226
 147	 231
 147	 245
 147	 247
 148	 150
 148	 151
 148	 153
 148	 177
 148	 181
 148	 182
 148	 187
 148	 189
 148	 195
 148	 215
 148	 222
 148	 247
 149	 154
 149	 160
 149	 163
 149	 166
 149	 186
 149	 188
 149	 195
 149	 204
 149	 210
 149	 215
 149	 216
 149	 223
 149	 227
 149	 231
 149	 237
 150	 152
 150	 157
 150	 158
 150	 162
 150	 166
 150	 173
 150	 174
 150	 186
 150	 204
 150	 207
 150	 217
 150	 238
 150	 240
 151	 174
 151	 178
 151	 182
 151	 187
 151	 195
 151	 199
 151	 204
 151	 219
 151	 220
 151	 228
 151	 244
 152	 157
 152	 163
 152	 166
 152	 183
 152	 184
 152	 207
 152	 210
 152	 212
 152	 223
 152	 232
 152	 242
 152	 248
 153	 170
 153	 179
 153	 191
 153	 199
 153	 214
 153	 235
 153	 240
 153	 248
 154	 175
 154	 178
 154	 182
 154	 184
 154	 202
 154	 212
 154	 218
 154	 248
 155	 157
 155	 187
 155	 203
 155	 228
 155	 240
 155	 246
 155	 248
 156	 163
 156	 173
 156	 184
 156	 185
 156	 195
 156	 196
 156	 218
 156	 219
 156	 227
 156	 232
 156	 235
 156	 236
 157	 177
 157	 180
 157	 221
 157	 226
 157	 237
 158	 159
 158	 163
 158	 164
 158	 171
 158	 176
 158	 191
 158	 196
 158	 199
 158	 207
 158	 208
 158	 229
 158	 236
 158	 239
 158	 242
 158	 246
 159	 197
 159	 199
 159	 206
 159	 229
 159	 237
 160	 199
 160	 210
 160	 217
 160	 232
 160	 238
 160	 245
 161	 163
 161	 166
 161	 175
 161	 183
 161	 187
 161	 188
 161	 189
 161	 193
 161	 195
 161	 231
 161	 233
 161	 236
 161	 238
 161	 240
 162	 170
 162	 179
 162	 180
 162	 181
 162	 194
 162	 196
 162	 215
 162	 217
 162	 233
 163	 176
 163	 184
 163	 187
 163	 210
 163	 213
 163	 232
 164	 165
 164	 166
 164	 175
 164	 204
 164	 225
 164	 232
 164	 237
 165	 175
 165	 180
 165	 192
 165	 196
 165	 221
 165	 224
 165	 225
 165	 236
 165	 239
 165	 245
 166	 180
 166	 185
 166	 201
 166	 203
 166	 204
 166	 208
 166	 221
 166	 224
 166	 248
 167	 168
 167	 171
 167	 185
 167	 188
 167	 191
 167	 205
 167	 226
 168	 200
 168	 214
 168	 239
 168	 245
 168	 246
 168	 247
 169	 171
 169	 177
 169	 183
 169	 201
 169	 235
 170	 178
 170	 187
 170	 206
 170	 221
 170	 243
 171	 179
 171	 187
 171	 198
 171	 207
 171	 217
 171	 245
 171	 246
 172	 181
 172	 201
 172	 214
 172	 217
 172	 235
 173	 176
 173	 177
 173	 202
 173	 219
 173	 223
 173	 233
 173	 239
 173	 246
 174	 189
 174	 203
 174	 213
 174	 228
 174	 231
 174	 233
 174	 239
 174	 242
 174	 245
 174	 246
 175	 192
 175	 227
 175	 233
 175	 239
 175	 244
 175	 248
 176	 183
 176	 193
 176	 195
 176	 196
 176	 199
 176	 200
 176	 205
 176	 210
 176	 237
 176	 239
 177	 189
 177	 197
 177	 208
 177	 225
 178	 180
 178	 192
 178	 193
 178	 195
 178	 204
 178	 213
 178	 234
 178	 246
 178	 247
 179	 192
 179	 201
 179	 209
 179	 211
 179	 222
 179	 223
 179	 228
 179	 229
 180	 183
 180	 196
 180	 201
 180	 203
 180	 221
 180	 225
 180	 244
 180	 248
 181	 186
 181	 190
 181	 191
 181	 194
 181	 227
 181	 228
 182	 190
 182	 200
 182	 218
 182	 224
 182	 244
 183	 185
 183	 187
 183	 191
 183	 216
 183	 218
 183	 221
 183	 226
 183	 239
 183	 240
 183	 244
 183	 245
 183	 246
 183	 248
 184	 193
 184	 203
 184	 205
 184	 210
 184	 244
 185	 208
 185	 216
 185	 222
 185	 243
 186	 216
 186	 240
 186	 242
 187	 194
 187	 227
 187	 234
 187	 239
 187	 244
 188	 205
 188	 213
 188	 218
 188	 219
 188	 244
 189	 207
 189	 208
 189	 223
 189	 225
 189	 227
 189	 228
 190	 192
 190	 239
 190	 244
 190	 247
 191	 206
 191	 212
 191	 219
 191	 235
 191	 238
 191	 240
 192	 206
 192	 222
 192	 238
 192	 248
 193	 196
 193	 197
 193	 199
 193	 206
 193	 217
 193	 225
 193	 240
 194	 199
 194	 202
 194	 225
 194	 226
 194	 234
 194	 239
 194	 242
 195	 199
 195	 200
 195	 201
 195	 209
 195	 217
 195	 223
 195	 226
 195	 232
 195	 240
 196	 197
 196	 215
 196	 248
 197	 198
 197	 217
 197	 222
 197	 226
 197	 227
 197	 233
 197	 236
 197	 244
 197	 248
 198	 202
 198	 208
 198	 213
 198	 217
 198	 219
 198	 220
 198	 221
 198	 233
 198	 242
 199	 205
 199	 209
 199	 217
 199	 229
 199	 240
 200	 201
 200	 220
 200	 228
 200	 231
 200	 232
 200	 240
 201	 213
 201	 220
 201	 222
 201	 229
 201	 247
 202	 209
 202	 210
 202	 229
 202	 248
 203	 221
 203	 236
 203	 246
 203	 247
 204	 205
 204	 209
 204	 210
 204	 215
 204	 230
 204	 247
 205	 216
 205	 220
 206	 210
 206	 218
 206	 238
 207	 216
 207	 217
 207	 221
 207	 226
 207	 230
 207	 247
 208	 218
 208	 231
 208	 247
 209	 215
 209	 225
 209	 228
 209	 235
 210	 215
 210	 234
 211	 220
 211	 235
 211	 237
 211	 245
 212	 224
 212	 233
 213	 232
 214	 218
 214	 235
 214	 236
 215	 227
 215	 233
 215	 236
 215	 245
 215	 246
 216	 228
 216	 229
 216	 231
 216	 234
 217	 240
 217	 241
 217	 242
 217	 243
 218	 225
 218	 242
 219	 238
 220	 225
 220	 227
 220	 234
 221	 228
 221	 232
 222	 228
 222	 238
 223	 226
 223	 237
 223	 246
 224	 239
 224	 246
 225	 234
 226	 235
 226	 247
 227	 230
 227	 235
 227	 241
 229	 231
 229	 236
 229	 237
 229	 243
 229	 245
 230	 235
 231	 248
 232	 244
 232	 246
 233	 238
 235	 239
 236	 240
 237	 242
 237	 248
 238	 243
 239	 240
 240	 247
 241	 245
;
